NAME: random_30_7
TYPE: TSP
COMMENT: random_30_7
DIMENSION: 30
EDGE_WEIGHT_TYPE: EUC_2D
NODE_COORD_SECTION
1 229 428
2 328 73
3 312 422
4 68 385
5 354 338
6 308 75
7 286 492
8 440 346
9 485 230
10 40 353
11 498 332
12 115 220
13 178 44
14 151 70
15 189 406
16 70 436
17 114 63
18 154 335
19 194 430
20 221 492
21 461 181
22 454 427
23 125 223
24 468 25
25 171 78
26 390 72
27 297 202
28 129 361
29 324 213
30 390 129
